NAME: ACTUAL_TOURS/amz1196
TYPE: TOUR
COMMENT: RouteID_7f9dfeb5-3d8d-43c6-86a4-b6f176c7c05c
DIMENSION: 155
TOUR_SECTION
96
95
112
66
126
58
154
153
91
3
61
78
136
105
127
148
4
49
17
82
76
98
144
140
41
9
33
125
18
28
38
139
118
21
60
117
62
71
120
119
47
106
138
130
129
35
59
1
51
8
100
146
107
45
147
83
73
85
152
5
50
110
101
121
48
26
142
70
57
43
16
6
55
14
115
25
67
99
132
40
63
7
2
94
123
53
89
114
111
29
32
64
77
87
46
22
13
68
27
90
15
11
97
108
150
79
103
133
34
102
104
20
36
88
131
80
19
52
39
81
44
65
151
124
134
149
42
109
56
23
93
155
75
145
37
122
24
30
92
135
72
69
12
31
141
74
143
86
116
128
54
10
84
137
113
-1
EOF
